200
1000
165
164
163
162
162
161
160
160
160
159
159
159
158
157
157
157
157
156
155
155
154
154
153
153
153
152
151
150
148
147
145
145
144
142
142
141
141
141
139
139
139
138
138
137
136
135
134
133
132
132
131
131
131
130
130
129
129
127
127
125
125
124
124
124
124
123
123
122
122
122
121
121
121
120
119
119
119
119
118
118
117
117
116
116
116
115
115
114
114
113
113
113
112
111
111
111
109
109
107
107
107
106
106
105
105
104
104
104
104
102
102
100
100
99
99
99
98
98
98
97
97
97
96
96
95
94
93
93
92
92
92
92
91
91
91
91
91
89
89
89
88
88
88
86
86
86
86
86
85
84
84
84
83
82
82
80
80
80
79
79
79
79
78
77
76
76
76
75
74
74
74
73
72
70
70
70
69
68
68
67
67
67
66
64
64
63
63
62
61
61
60
59
58
58
58
57
57
57
57
57
